NAME: ClusterId_257 
COMMENT : (Gillet and Johnson) 
TYPE : CVRP 
DIMENSION: 3 
EDGE_WEIGHT_TYPE: EUC_2D 
CAPACITY: 500 
NODE_COORD_SECTION 
258 70 0 
112 62 -8 
237 63 -14 
24 64 -17 
DEMAND_SECTION 
258 80
112 -8
237 -14
24 -17
DEPOT_SECTION 
258
 -1
EOF